num_posiciones_existentes=2;

ciudades=[|4, 4
|8, 8|];

tamano_matriz=10;

matriz_segmento_poblacion=[|10, 9, 9, 7, 10, 15, 4, 3, 2, 1
                            |9, 6, 5, 9, 5, 12, 13, 2, 1, 12
                            |8, 3, 1, 5, 4, 9, 8, 7, 10, 9
                            |7, 2, 5, 11, 7, 2, 9, 14, 9, 8
                            |6, 5, 12, 4, 2, 10, 10, 9, 8, 7
                            |5, 10, 3, 2, 11, 15, 9, 8, 7, 6
                            |4, 1, 2, 12, 10, 9, 8, 7, 6, 5
                            |3, 2, 15, 17, 9, 8, 7, 6, 5, 4
                            |2, 10, 14, 9, 8, 7, 6, 5, 4, 3
                            |3, 11, 9, 8, 7, 6, 13, 4, 3, 2|];

matriz_entorno_empresarial=[|11, 5, 14, 8, 3, 6, 12, 7, 9, 1
                            |7, 13, 2, 10, 6, 14, 9, 11, 4, 8
                            |1, 12, 6, 9, 7, 15, 3, 8, 14, 2
                            |14, 9, 3, 7, 11, 10, 5, 2, 8, 12
                            |4, 8, 13, 5, 14, 12, 7, 1, 9, 11
                            |10, 3, 8, 6, 9, 2, 14, 11, 7, 4
                            |6, 7, 12, 15, 13, 8, 1, 9, 4, 3
                            |9, 2, 14, 10, 7, 3, 6, 8, 12, 15
                            |12, 14, 5, 3, 11, 7, 9, 10, 8, 4
                            |15, 1, 9, 2, 13, 6, 8, 5, 11, 7|];
                        


num_programas=5;